! H2O test calculation
!   semiempirical calculation, using the MOPAC/GAMESS combo
!
!
 $CONTRL SCFTYP=RHF RUNTYP=GRADIENT COORD=UNIQUE ICHARG=0 UNITS=ANGS $END
 $SYSTEM TIMLIM=10 $END
 $BASIS  GBASIS=PM3 NGAUSS=3 $END
 $DATA
H2O in semiempirical models(PM3)
Cn 1

O   8.0       0.0002140      -0.0012214      -0.0015774  
H   1.0       0.7503174      -0.5899082      -0.0165653  
H   1.0      -0.7667967      -0.5840241       0.0011002  
 $END 
