! H2O test calculation
!   semiempirical calculation, using the MOPAC/GAMESS combo
!
!
 $CONTRL SCFTYP=RHF RUNTYP=GRADIENT COORD=UNIQUE ICHARG=0 UNITS=ANGS $END
 $SYSTEM TIMLIM=10 $END
 $BASIS  GBASIS=PM3 NGAUSS=3 $END
 $DATA
H2O in semiempirical models(PM3)
Cn 1

O   8.0       0.0042359      -0.0010907      -0.0035725  
H   1.0       0.7339972      -0.5844208      -0.0210304  
H   1.0      -0.7539293      -0.5877540       0.0191069  
 $END 
