! H2O test calculation
!   semiempirical calculation, using the MOPAC/GAMESS combo
!
!
 $CONTRL SCFTYP=RHF RUNTYP=GRADIENT COORD=UNIQUE ICHARG=0 UNITS=ANGS $END
 $SYSTEM TIMLIM=10 $END
 $BASIS  GBASIS=PM3 NGAUSS=3 $END
 $DATA
H2O in semiempirical models(PM3)
Cn 1

O   8.0      -0.0000546       0.0028149      -0.0057643  
H   1.0       0.7602252      -0.5834937       0.0269594  
H   1.0      -0.7447324      -0.5910236       0.0066219  
 $END 
