! H2O test calculation
!   semiempirical calculation, using the MOPAC/GAMESS combo
!
!
 $CONTRL SCFTYP=RHF RUNTYP=GRADIENT COORD=UNIQUE ICHARG=0 UNITS=ANGS $END
 $SYSTEM TIMLIM=10 $END
 $BASIS  GBASIS=PM3 NGAUSS=3 $END
 $DATA
H2O in semiempirical models(PM3)
Cn 1

O   8.0      -0.0041574       0.0055671       0.0093241  
H   1.0       0.7665784      -0.5816880       0.0121782  
H   1.0      -0.7533067      -0.5832349      -0.0146752  
 $END 
