! H2O test calculation
!   semiempirical calculation, using the MOPAC/GAMESS combo
!
!
 $CONTRL SCFTYP=RHF RUNTYP=GRADIENT COORD=UNIQUE ICHARG=0 UNITS=ANGS $END
 $SYSTEM TIMLIM=10 $END
 $BASIS  GBASIS=PM3 NGAUSS=3 $END
 $DATA
H2O in semiempirical models(PM3)
Cn 1

O   8.0      -0.0032527       0.0080219       0.0068320  
H   1.0       0.7689510      -0.5875590      -0.0133236  
H   1.0      -0.7713390      -0.5789421      -0.0028613  
 $END 
