! H2O test calculation
!   semiempirical calculation, using the MOPAC/GAMESS combo
!
!
 $CONTRL SCFTYP=RHF RUNTYP=GRADIENT COORD=UNIQUE ICHARG=0 UNITS=ANGS $END
 $SYSTEM TIMLIM=10 $END
 $BASIS  GBASIS=PM3 NGAUSS=3 $END
 $DATA
H2O in semiempirical models(PM3)
Cn 1

O   8.0       0.0089305       0.0016146      -0.0034788  
H   1.0       0.7667418      -0.6168081       0.0536727  
H   1.0      -0.8020677      -0.5376916      -0.0049794  
 $END 
