&CONTROL
  calculation = 'scf',
  pseudo_dir = '/projects/academic/alexeyak/Software/PSEUDO/SSSP/SSSP_acc_PBE/',
  outdir = './',
  prefix = 'x1',
  tprnfor = .true.
/

&SYSTEM
  ibrav = 0,
  celldm(1) = 1.89 ,
  nat = 6,
  ntyp = 2,
  nspin = 2,
  nbnd = 16,
  ecutwfc = 30,
  tot_charge = 0.0,
  starting_magnetization(1) = 0.01
  occupations = 'from_input',
  smearing = 'gaussian',
  degauss = 0.005,
  nosym = .true.,
/

&ELECTRONS
  electron_maxstep = 20,
  conv_thr = 1.D-5,
  mixing_beta = 0.45,
/

&IONS
  ion_dynamics = 'verlet',
  ion_temperature = 'andersen',
  tempw = 300.00 ,
  nraise = 1,
/


ATOMIC_SPECIES
 C  12.01  C_pbe_v1.2.uspp.F.UPF
 H  1.008  H.pbe-rrkjus_psl.0.1.UPF


K_POINTS automatic
1 1 1  0 0 0
 
                               
CELL_PARAMETERS
    12.0000000    0.0000000    0.0000000
     0.0000000   12.0000000    0.0000000
     0.0000000    0.0000000   12.0000000
 
ATOMIC_POSITIONS (alat)
C -5.2679211 2.1287596 -0.0463945
C -3.4843898 2.4864710 0.0901491
H -5.8036222 2.3879824 -0.9670119
H -5.8466696 1.4697245 0.5364288
H -2.7055564 1.9065855 -0.3998875
H -3.2799337 3.4373270 0.5313068

OCCUPATIONS
1.000 1.000 1.000 1.000 1.000 0.000 1.000 0.000 0.000 0.000
0.000 0.000 0.000 0.000 0.000 0.000

1.000 1.000 1.000 1.000 1.000 1.000 0.000 0.000 0.000 0.000
0.000 0.000 0.000 0.000 0.000 0.000

