! 23 waters test calculation
!   semiempirical calculation, using the MOPAC/GAMESS combo
!
!
 $CONTRL SCFTYP=RHF RUNTYP=GRADIENT COORD=UNIQUE ICHARG=0 UNITS=ANGS $END
 $SYSTEM TIMLIM=10 $END
 $BASIS  GBASIS=AM1 NGAUSS=6 $END
 $DATA
23 waters in semiempirical models(AM1)
Cn 1

O 8.0      0.705   0.744   0.160
H 1.0     -0.071   0.264   0.450
H 1.0      1.356   0.064  -0.014 
O 8.0     -1.092  -0.672   1.792 
H 1.0     -0.725  -1.146   2.538
H 1.0     -1.282   0.203   2.132
O 8.0      2.169  -1.407   1.640
H 1.0      1.438  -0.898   1.989
H 1.0      1.772  -2.224   1.339
O 8.0      2.573  -1.034  -1.721
H 1.0      2.493  -1.949  -1.992
H 1.0      2.160  -0.537  -2.427
O 8.0     -2.852  -2.432   0.188
H 1.0     -2.344  -1.934   0.829
H 1.0     -2.321  -3.209   0.012
O 8.0      3.039   2.832  -1.018
H 1.0      3.392   2.234  -1.678
H 1.0      2.156   2.506  -0.847
O 8.0     -3.211  -0.002  -1.696
H 1.0     -3.615  -0.714  -2.191
H 1.0     -3.124  -0.346  -0.807
O 8.0     -3.318   1.847   2.632
H 1.0     -3.651   2.474   3.274
H 1.0     -3.142   2.373   1.852
O 8.0      0.146   3.420   0.167
H 1.0      0.077   2.479   0.006
H 1.0      0.908   3.510   0.740
O 8.0     -0.874   3.591  -3.611
H 1.0     -0.187   4.138  -3.230
H 1.0     -1.661   4.136  -3.576
O 8.0     -2.742   3.685   0.468
H 1.0     -3.040   3.080  -0.211
H 1.0     -1.792   3.723   0.357
O 8.0      3.746   2.027   2.405
H 1.0      4.163   1.813   1.571
H 1.0      4.470   2.284   2.976
O 8.0      1.176  -3.773   0.394
H 1.0      1.553  -4.646   0.282
H 1.0      1.078  -3.438  -0.497
O 8.0     -0.217  -2.155   3.908
H 1.0      0.282  -1.680   4.574
H 1.0     -0.075  -3.079   4.115
O 8.0      1.584  -3.998  -2.455
H 1.0      1.977  -3.681  -3.268
H 1.0      1.946  -4.877  -2.341
O 8.0     -1.571   0.596  -3.999
H 1.0     -1.115   1.407  -3.772
H 1.0     -1.923   0.278  -3.167
O 8.0      1.818   2.320  -4.046
H 1.0      1.200   2.785  -4.610
H 1.0      2.331   3.012  -3.629
O 8.0     -1.842  -3.575  -4.091
H 1.0     -2.551  -3.106  -3.650
H 1.0     -1.558  -4.232  -3.456
O 8.0      2.005   4.110   1.948
H 1.0      2.647   3.409   2.062
H 1.0      2.530   4.890   1.768
O 8.0     -3.302  -1.631   4.110
H 1.0     -3.606  -0.751   4.335
H 1.0     -2.347  -1.571   4.146
O 8.0      3.789  -0.332   4.233
H 1.0      3.263   0.192   3.629
H 1.0      4.133   0.300   4.864
O 8.0     -4.252  -2.640  -3.085
H 1.0     -4.478  -2.857  -2.180
H 1.0     -5.033  -2.208  -3.430
O 8.0     -0.886   1.382   4.273
H 1.0     -0.467   2.226   4.100
H 1.0     -1.805   1.520   4.043
 $END
